% demand
num_movements = 26;
loading_factor = [1200, 1600, 1650, 1200, 1500, 1050, 1200, 1750, 1500, 1400, 1000, 1500, 1100, 1050, 1400, 2000, 1050, 1700, 1250, 1800, 1800, 1200, 1650, 950, 1800, 1750];
pickup_time = [0, 0, 0, 0, 1, 1, 1, 1, 1, 2, 2, 2, 4, 4, 4, 4, 6, 7, 7, 8, 8, 9, 10, 10, 10, 10];
delivery_time = [1, 1, 1, 1, 2, 3, 2, 4, 2, 4, 4, 4, 8, 5, 7, 8, 7, 10, 8, 10, 10, 10, 11, 11, 11, 11];

% transporter definition
total_capacity = 7000;
num_decks = 3;
capacity = [3000, 1000, 3000];

% ways out of decks
num_ways_out = 1;
paths_out = array3d(decks, ways_out, decks, [
% ways out of deck d1
2, 3, 0, 

% ways out of deck d2
3, 0, 0, 

% ways out of deck d3
0, 0, 0,	

]);

